<number of tasks>
100

<cycle time>
1000

<order strength>
0.596


<task times>
1 162
2 359
3 32
4 280
5 84
6 82
7 348
8 94
9 140
10 196
11 40
12 31
13 383
14 177
15 383
16 151
17 59
18 92
19 34
20 28
21 94
22 153
23 281
24 190
25 209
26 291
27 166
28 62
29 104
30 172
31 339
32 89
33 183
34 94
35 239
36 120
37 37
38 164
39 159
40 50
41 349
42 247
43 191
44 45
45 238
46 76
47 177
48 62
49 107
50 146
51 128
52 41
53 161
54 171
55 35
56 32
57 187
58 147
59 125
60 146
61 101
62 103
63 127
64 111
65 27
66 109
67 74
68 142
69 125
70 156
71 100
72 59
73 258
74 158
75 160
76 169
77 129
78 45
79 146
80 262
81 41
82 164
83 134
84 52
85 75
86 106
87 59
88 83
89 35
90 147
91 196
92 20
93 61
94 156
95 130
96 57
97 160
98 166
99 75
100 49

<precedence relations>
1,42
2,42
3,23
4,7
4,9
4,10
4,11
5,6
5,8
5,13
5,16
5,17
6,88
7,42
8,52
9,52
10,23
11,12
11,13
11,14
11,15
11,16
11,17
12,42
13,42
14,23
15,23
16,18
16,19
16,20
16,21
17,18
17,19
17,20
17,21
18,70
19,70
20,23
21,22
21,23
21,24
21,25
22,70
23,26
23,27
23,28
23,29
23,30
23,31
23,32
24,26
24,33
24,40
25,26
25,27
25,45
26,42
27,52
28,34
28,35
28,36
28,37
28,40
29,36
30,38
31,39
32,41
33,35
33,37
33,41
34,42
35,42
36,42
37,42
38,52
39,52
40,52
41,43
41,44
41,45
42,46
42,47
42,48
42,49
42,50
42,51
42,53
43,52
44,52
45,87
46,70
47,73
48,66
51,65
51,68
52,54
52,55
52,56
52,57
52,58
52,59
52,60
52,62
53,61
54,70
54,76
55,90
56,64
56,66
57,63
57,65
58,88
59,64
60,67
60,68
60,76
60,90
61,63
61,66
62,64
62,66
63,70
64,70
65,72
65,73
65,75
65,87
66,68
66,69
66,71
66,72
66,74
67,72
68,88
69,88
70,78
70,79
70,80
70,81
70,82
70,83
70,84
70,85
70,86
73,76
73,77
74,87
76,88
77,88
82,89
84,88
86,90
88,91
88,92
88,93
88,94
88,95
88,96
90,98
91,97
91,98
92,100
93,99
96,97
99,100

<end>
